# Solution for model r3_t27_m2_1
# Finished Task: 23 / 27
# Makespan: 784.0, Total Distance: 996.0, Total Time: 2.5998
# R O S F
0 0 3 0.0 0.0
1 1 19 0.0 0.0
2 2 4 0.0 0.0
3 0 5 170.0 209.0
4 2 24 62.0 99.0
5 0 20 397.0 429.0
6 2 11 549.0 583.0
7 1 18 676.0 709.0
8 -1 -1 -1.0 -1.0
9 0 17 642.0 672.0
10 2 6 515.0 549.0
11 2 26 638.0 672.0
12 0 21 557.0 589.0
13 -1 -1 -1.0 -1.0
14 1 23 475.0 501.0
15 -1 -1 -1.0 -1.0
16 -1 -1 -1.0 -1.0
17 0 -1 753.0 784.0
18 1 -1 723.0 760.0
19 1 22 221.0 245.0
20 0 12 466.0 503.0
21 0 9 607.0 642.0
22 1 25 393.0 424.0
23 1 27 523.0 559.0
24 2 29 395.0 434.0
25 1 14 438.0 467.0
26 2 -1 707.0 744.0
27 1 28 587.0 610.0
28 1 7 634.0 665.0
29 2 10 464.0 495.0
